Minimize

6.513049872376788E-7 x_0 + 1.5450195522224334E-6 x_1 + 4.339034825093506E-6 x_2 + 2.75234912998244E-6 x_3 + 1.1268684888130131E-6 x_4 + 2.4306652730852435E-5 x_5 + 3.887919069076658E-6 x_6 + 1.8879394651089908E-6 x_7 + 4.595989539527808E-6 x_8 + 3.791627328533133E-6 x_9


Subject To

a0: x_0 + x_1 >= 1
a1: x_0 + x_2 >= 1
a2: x_0 + x_3 >= 1
a3: x_0 + x_5 >= 1
a4: x_1 + x_2 >= 1
a5: x_1 + x_9 >= 1
a6: x_3 + x_5 >= 1
a7: x_3 + x_7 >= 1
a8: x_3 + x_8 >= 1
a9: x_4 + x_5 >= 1
a10: x_4 + x_6 >= 1
a11: x_4 + x_9 >= 1
a12: x_5 + x_6 >= 1
a13: x_5 + x_7 >= 1
a14: x_6 + x_7 >= 1
a15: x_7 + x_8 >= 1




Binary

x_0 x_1 x_2 x_3 x_4 x_5 x_6 x_7 x_8 x_9

 


End
